num_wann = 9
num_bands = 20


hr_plot=true
#write_xyz=true
#translate_home_cell=true
 
dis_win_max=80
dis_win_min=-5.0

dis_froz_max=20.0
dis_froz_min=-5.0

#dis_mix_ratio=0.5
dis_num_iter=200
 
num_iter=20
#restart = wannierise

#fixed_centres = .TRUE.
#guiding_centres = .TRUE.
#lambda_c = 5 

bands_plot = true
bands_num_points = 40
bands_plot_format = gnuplot xmgrace

begin kpoint_path
 GAMMA   0.0000000000   0.0000000000   0.0000000000       X       0.5000000000   0.0000000000   0.5000000000
 X       0.5000000000   0.0000000000   0.5000000000       W       0.5000000000   0.2500000000   0.7500000000
 W       0.5000000000   0.2500000000   0.7500000000       K       0.3750000000   0.3750000000   0.7500000000
 K       0.3750000000   0.3750000000   0.7500000000       GAMMA   0.0000000000   0.0000000000   0.0000000000
 GAMMA   0.0000000000   0.0000000000   0.0000000000       L       0.5000000000   0.5000000000   0.5000000000
end kpoint_path

 
Begin Projections
Cu:s;p;d
End Projections

begin unit_cell_cart
     0.0000000     1.8075000     1.8075000
     1.8075000     0.0000000     1.8075000
     1.8075000     1.8075000     0.0000000
end unit_cell_cart

begin atoms_cart
Cu       0.0000000     0.0000000     0.0000000
end atoms_cart

mp_grid =     8     8     8

begin kpoints
      0.000000000000      0.000000000000      0.000000000000
      0.125000000000      0.000000000000      0.000000000000
      0.250000000000      0.000000000000      0.000000000000
      0.375000000000      0.000000000000      0.000000000000
      0.500000000000      0.000000000000      0.000000000000
      0.125000000000      0.125000000000      0.000000000000
      0.250000000000      0.125000000000      0.000000000000
      0.375000000000      0.125000000000      0.000000000000
      0.500000000000      0.125000000000      0.000000000000
     -0.375000000000      0.125000000000      0.000000000000
     -0.250000000000      0.125000000000      0.000000000000
     -0.125000000000      0.125000000000      0.000000000000
      0.250000000000      0.250000000000      0.000000000000
      0.375000000000      0.250000000000      0.000000000000
      0.500000000000      0.250000000000      0.000000000000
     -0.375000000000      0.250000000000      0.000000000000
     -0.250000000000      0.250000000000      0.000000000000
      0.375000000000      0.375000000000      0.000000000000
      0.500000000000      0.375000000000      0.000000000000
     -0.375000000000      0.375000000000      0.000000000000
      0.500000000000      0.500000000000      0.000000000000
      0.375000000000      0.250000000000      0.125000000000
      0.500000000000      0.250000000000      0.125000000000
     -0.375000000000      0.250000000000      0.125000000000
      0.500000000000      0.375000000000      0.125000000000
     -0.375000000000      0.375000000000      0.125000000000
     -0.250000000000      0.375000000000      0.125000000000
     -0.375000000000      0.500000000000      0.125000000000
     -0.250000000000      0.500000000000      0.250000000000
     -0.125000000000      0.000000000000      0.000000000000
      0.000000000000      0.125000000000      0.000000000000
      0.000000000000     -0.125000000000      0.000000000000
      0.000000000000      0.000000000000      0.125000000000
      0.000000000000      0.000000000000     -0.125000000000
      0.125000000000      0.125000000000      0.125000000000
     -0.125000000000     -0.125000000000     -0.125000000000
     -0.250000000000      0.000000000000      0.000000000000
      0.000000000000      0.250000000000      0.000000000000
      0.000000000000     -0.250000000000      0.000000000000
      0.000000000000      0.000000000000      0.250000000000
      0.000000000000      0.000000000000     -0.250000000000
      0.250000000000      0.250000000000      0.250000000000
     -0.250000000000     -0.250000000000     -0.250000000000
     -0.375000000000      0.000000000000      0.000000000000
      0.000000000000      0.375000000000      0.000000000000
      0.000000000000     -0.375000000000      0.000000000000
      0.000000000000      0.000000000000      0.375000000000
      0.000000000000      0.000000000000     -0.375000000000
      0.375000000000      0.375000000000      0.375000000000
     -0.375000000000     -0.375000000000     -0.375000000000
      0.000000000000      0.500000000000      0.000000000000
      0.000000000000      0.000000000000      0.500000000000
      0.500000000000      0.500000000000      0.500000000000
     -0.125000000000     -0.125000000000      0.000000000000
      0.000000000000      0.125000000000      0.125000000000
      0.000000000000     -0.125000000000     -0.125000000000
      0.125000000000      0.000000000000      0.125000000000
     -0.125000000000      0.000000000000     -0.125000000000
     -0.250000000000     -0.125000000000      0.000000000000
      0.000000000000      0.250000000000      0.125000000000
      0.000000000000     -0.250000000000     -0.125000000000
      0.125000000000      0.000000000000      0.250000000000
     -0.125000000000      0.000000000000     -0.250000000000
      0.125000000000      0.125000000000     -0.125000000000
     -0.125000000000     -0.125000000000      0.125000000000
      0.250000000000      0.125000000000      0.250000000000
     -0.250000000000     -0.125000000000     -0.250000000000
      0.125000000000      0.250000000000      0.000000000000
     -0.125000000000     -0.250000000000      0.000000000000
      0.125000000000     -0.125000000000     -0.125000000000
     -0.125000000000      0.125000000000      0.125000000000
      0.250000000000      0.250000000000      0.125000000000
     -0.250000000000     -0.250000000000     -0.125000000000
      0.000000000000      0.125000000000      0.250000000000
      0.000000000000     -0.125000000000     -0.250000000000
     -0.125000000000      0.125000000000     -0.125000000000
      0.125000000000     -0.125000000000      0.125000000000
      0.125000000000      0.250000000000      0.250000000000
     -0.125000000000     -0.250000000000     -0.250000000000
      0.250000000000      0.000000000000      0.125000000000
     -0.250000000000      0.000000000000     -0.125000000000
     -0.375000000000     -0.125000000000      0.000000000000
      0.000000000000      0.375000000000      0.125000000000
      0.000000000000     -0.375000000000     -0.125000000000
      0.125000000000      0.000000000000      0.375000000000
     -0.125000000000      0.000000000000     -0.375000000000
      0.125000000000      0.125000000000     -0.250000000000
     -0.125000000000     -0.125000000000      0.250000000000
      0.375000000000      0.250000000000      0.375000000000
     -0.375000000000     -0.250000000000     -0.375000000000
      0.125000000000      0.375000000000      0.000000000000
     -0.125000000000     -0.375000000000      0.000000000000
      0.250000000000     -0.125000000000     -0.125000000000
     -0.250000000000      0.125000000000      0.125000000000
      0.375000000000      0.375000000000      0.250000000000
     -0.375000000000     -0.375000000000     -0.250000000000
      0.000000000000      0.125000000000      0.375000000000
      0.000000000000     -0.125000000000     -0.375000000000
     -0.125000000000      0.250000000000     -0.125000000000
      0.125000000000     -0.250000000000      0.125000000000
      0.250000000000      0.375000000000      0.375000000000
     -0.250000000000     -0.375000000000     -0.375000000000
      0.375000000000      0.000000000000      0.125000000000
     -0.375000000000      0.000000000000     -0.125000000000
     -0.500000000000     -0.125000000000      0.000000000000
      0.000000000000      0.500000000000      0.125000000000
      0.000000000000     -0.500000000000     -0.125000000000
      0.125000000000      0.000000000000      0.500000000000
     -0.125000000000      0.000000000000     -0.500000000000
      0.125000000000      0.125000000000     -0.375000000000
     -0.125000000000     -0.125000000000      0.375000000000
      0.500000000000      0.375000000000      0.500000000000
     -0.500000000000     -0.375000000000     -0.500000000000
      0.125000000000      0.500000000000      0.000000000000
     -0.125000000000     -0.500000000000      0.000000000000
      0.375000000000     -0.125000000000     -0.125000000000
     -0.375000000000      0.125000000000      0.125000000000
      0.500000000000      0.500000000000      0.375000000000
     -0.500000000000     -0.500000000000     -0.375000000000
      0.000000000000      0.125000000000      0.500000000000
      0.000000000000     -0.125000000000     -0.500000000000
     -0.125000000000      0.375000000000     -0.125000000000
      0.125000000000     -0.375000000000      0.125000000000
      0.375000000000      0.500000000000      0.500000000000
     -0.375000000000     -0.500000000000     -0.500000000000
      0.500000000000      0.000000000000      0.125000000000
     -0.500000000000      0.000000000000     -0.125000000000
      0.375000000000     -0.125000000000      0.000000000000
      0.000000000000     -0.375000000000      0.125000000000
      0.000000000000      0.375000000000     -0.125000000000
      0.125000000000      0.000000000000     -0.375000000000
     -0.125000000000      0.000000000000      0.375000000000
      0.125000000000      0.125000000000      0.500000000000
     -0.125000000000     -0.125000000000     -0.500000000000
     -0.375000000000     -0.500000000000     -0.375000000000
      0.375000000000      0.500000000000      0.375000000000
      0.125000000000     -0.375000000000      0.000000000000
     -0.125000000000      0.375000000000      0.000000000000
     -0.500000000000     -0.125000000000     -0.125000000000
      0.500000000000      0.125000000000      0.125000000000
     -0.375000000000     -0.375000000000     -0.500000000000
      0.375000000000      0.375000000000      0.500000000000
      0.000000000000      0.125000000000     -0.375000000000
      0.000000000000     -0.125000000000      0.375000000000
     -0.125000000000     -0.500000000000     -0.125000000000
      0.125000000000      0.500000000000      0.125000000000
     -0.500000000000     -0.375000000000     -0.375000000000
      0.500000000000      0.375000000000      0.375000000000
     -0.375000000000      0.000000000000      0.125000000000
      0.375000000000      0.000000000000     -0.125000000000
      0.250000000000     -0.125000000000      0.000000000000
      0.000000000000     -0.250000000000      0.125000000000
      0.000000000000      0.250000000000     -0.125000000000
      0.125000000000      0.000000000000     -0.250000000000
     -0.125000000000      0.000000000000      0.250000000000
      0.125000000000      0.125000000000      0.375000000000
     -0.125000000000     -0.125000000000     -0.375000000000
     -0.250000000000     -0.375000000000     -0.250000000000
      0.250000000000      0.375000000000      0.250000000000
      0.125000000000     -0.250000000000      0.000000000000
     -0.125000000000      0.250000000000      0.000000000000
     -0.375000000000     -0.125000000000     -0.125000000000
      0.375000000000      0.125000000000      0.125000000000
     -0.250000000000     -0.250000000000     -0.375000000000
      0.250000000000      0.250000000000      0.375000000000
      0.000000000000      0.125000000000     -0.250000000000
      0.000000000000     -0.125000000000      0.250000000000
     -0.125000000000     -0.375000000000     -0.125000000000
      0.125000000000      0.375000000000      0.125000000000
     -0.375000000000     -0.250000000000     -0.250000000000
      0.375000000000      0.250000000000      0.250000000000
     -0.250000000000      0.000000000000      0.125000000000
      0.250000000000      0.000000000000     -0.125000000000
      0.125000000000     -0.125000000000      0.000000000000
      0.000000000000     -0.125000000000      0.125000000000
      0.000000000000      0.125000000000     -0.125000000000
      0.125000000000      0.000000000000     -0.125000000000
     -0.125000000000      0.000000000000      0.125000000000
      0.125000000000      0.125000000000      0.250000000000
     -0.125000000000     -0.125000000000     -0.250000000000
     -0.125000000000     -0.250000000000     -0.125000000000
      0.125000000000      0.250000000000      0.125000000000
     -0.250000000000     -0.125000000000     -0.125000000000
      0.250000000000      0.125000000000      0.125000000000
     -0.250000000000     -0.250000000000      0.000000000000
      0.000000000000      0.250000000000      0.250000000000
      0.000000000000     -0.250000000000     -0.250000000000
      0.250000000000      0.000000000000      0.250000000000
     -0.250000000000      0.000000000000     -0.250000000000
     -0.375000000000     -0.250000000000      0.000000000000
      0.000000000000      0.375000000000      0.250000000000
      0.000000000000     -0.375000000000     -0.250000000000
      0.250000000000      0.000000000000      0.375000000000
     -0.250000000000      0.000000000000     -0.375000000000
      0.250000000000      0.250000000000     -0.125000000000
     -0.250000000000     -0.250000000000      0.125000000000
      0.375000000000      0.125000000000      0.375000000000
     -0.375000000000     -0.125000000000     -0.375000000000
      0.250000000000      0.375000000000      0.000000000000
     -0.250000000000     -0.375000000000      0.000000000000
      0.125000000000     -0.250000000000     -0.250000000000
     -0.125000000000      0.250000000000      0.250000000000
      0.375000000000      0.375000000000      0.125000000000
     -0.375000000000     -0.375000000000     -0.125000000000
      0.000000000000      0.250000000000      0.375000000000
      0.000000000000     -0.250000000000     -0.375000000000
     -0.250000000000      0.125000000000     -0.250000000000
      0.250000000000     -0.125000000000      0.250000000000
      0.125000000000      0.375000000000      0.375000000000
     -0.125000000000     -0.375000000000     -0.375000000000
      0.375000000000      0.000000000000      0.250000000000
     -0.375000000000      0.000000000000     -0.250000000000
     -0.500000000000     -0.250000000000      0.000000000000
      0.000000000000      0.500000000000      0.250000000000
      0.000000000000     -0.500000000000     -0.250000000000
      0.250000000000      0.000000000000      0.500000000000
     -0.250000000000      0.000000000000     -0.500000000000
      0.250000000000      0.250000000000     -0.250000000000
     -0.250000000000     -0.250000000000      0.250000000000
      0.500000000000      0.250000000000      0.500000000000
     -0.500000000000     -0.250000000000     -0.500000000000
      0.250000000000      0.500000000000      0.000000000000
     -0.250000000000     -0.500000000000      0.000000000000
      0.250000000000     -0.250000000000     -0.250000000000
     -0.250000000000      0.250000000000      0.250000000000
      0.500000000000      0.500000000000      0.250000000000
     -0.500000000000     -0.500000000000     -0.250000000000
      0.000000000000      0.250000000000      0.500000000000
      0.000000000000     -0.250000000000     -0.500000000000
     -0.250000000000      0.250000000000     -0.250000000000
      0.250000000000     -0.250000000000      0.250000000000
      0.250000000000      0.500000000000      0.500000000000
     -0.250000000000     -0.500000000000     -0.500000000000
      0.500000000000      0.000000000000      0.250000000000
     -0.500000000000      0.000000000000     -0.250000000000
      0.375000000000     -0.250000000000      0.000000000000
      0.000000000000     -0.375000000000      0.250000000000
      0.000000000000      0.375000000000     -0.250000000000
      0.250000000000      0.000000000000     -0.375000000000
     -0.250000000000      0.000000000000      0.375000000000
      0.250000000000      0.250000000000      0.625000000000
     -0.250000000000     -0.250000000000     -0.625000000000
     -0.375000000000     -0.625000000000     -0.375000000000
      0.375000000000      0.625000000000      0.375000000000
      0.250000000000     -0.375000000000      0.000000000000
     -0.250000000000      0.375000000000      0.000000000000
     -0.625000000000     -0.250000000000     -0.250000000000
      0.625000000000      0.250000000000      0.250000000000
     -0.375000000000     -0.375000000000     -0.625000000000
      0.375000000000      0.375000000000      0.625000000000
      0.000000000000      0.250000000000     -0.375000000000
      0.000000000000     -0.250000000000      0.375000000000
     -0.250000000000     -0.625000000000     -0.250000000000
      0.250000000000      0.625000000000      0.250000000000
     -0.625000000000     -0.375000000000     -0.375000000000
      0.625000000000      0.375000000000      0.375000000000
     -0.375000000000      0.000000000000      0.250000000000
      0.375000000000      0.000000000000     -0.250000000000
      0.250000000000     -0.250000000000      0.000000000000
      0.000000000000     -0.250000000000      0.250000000000
      0.000000000000      0.250000000000     -0.250000000000
      0.250000000000      0.000000000000     -0.250000000000
     -0.250000000000      0.000000000000      0.250000000000
      0.250000000000      0.250000000000      0.500000000000
     -0.250000000000     -0.250000000000     -0.500000000000
     -0.250000000000     -0.500000000000     -0.250000000000
      0.250000000000      0.500000000000      0.250000000000
     -0.500000000000     -0.250000000000     -0.250000000000
      0.500000000000      0.250000000000      0.250000000000
     -0.375000000000     -0.375000000000      0.000000000000
      0.000000000000      0.375000000000      0.375000000000
      0.000000000000     -0.375000000000     -0.375000000000
      0.375000000000      0.000000000000      0.375000000000
     -0.375000000000      0.000000000000     -0.375000000000
     -0.500000000000     -0.375000000000      0.000000000000
      0.000000000000      0.500000000000      0.375000000000
      0.000000000000     -0.500000000000     -0.375000000000
      0.375000000000      0.000000000000      0.500000000000
     -0.375000000000      0.000000000000     -0.500000000000
      0.375000000000      0.375000000000     -0.125000000000
     -0.375000000000     -0.375000000000      0.125000000000
      0.500000000000      0.125000000000      0.500000000000
     -0.500000000000     -0.125000000000     -0.500000000000
      0.375000000000      0.500000000000      0.000000000000
     -0.375000000000     -0.500000000000      0.000000000000
      0.125000000000     -0.375000000000     -0.375000000000
     -0.125000000000      0.375000000000      0.375000000000
      0.500000000000      0.500000000000      0.125000000000
     -0.500000000000     -0.500000000000     -0.125000000000
      0.000000000000      0.375000000000      0.500000000000
      0.000000000000     -0.375000000000     -0.500000000000
     -0.375000000000      0.125000000000     -0.375000000000
      0.375000000000     -0.125000000000      0.375000000000
      0.125000000000      0.500000000000      0.500000000000
     -0.125000000000     -0.500000000000     -0.500000000000
      0.500000000000      0.000000000000      0.375000000000
     -0.500000000000      0.000000000000     -0.375000000000
      0.375000000000     -0.375000000000      0.000000000000
      0.000000000000     -0.375000000000      0.375000000000
      0.000000000000      0.375000000000     -0.375000000000
      0.375000000000      0.000000000000     -0.375000000000
     -0.375000000000      0.000000000000      0.375000000000
      0.375000000000      0.375000000000      0.750000000000
     -0.375000000000     -0.375000000000     -0.750000000000
     -0.375000000000     -0.750000000000     -0.375000000000
      0.375000000000      0.750000000000      0.375000000000
     -0.750000000000     -0.375000000000     -0.375000000000
      0.750000000000      0.375000000000      0.375000000000
      0.000000000000      0.500000000000      0.500000000000
      0.500000000000      0.000000000000      0.500000000000
     -0.375000000000     -0.250000000000     -0.125000000000
      0.125000000000      0.375000000000      0.250000000000
     -0.125000000000     -0.375000000000     -0.250000000000
      0.250000000000      0.125000000000      0.375000000000
     -0.250000000000     -0.125000000000     -0.375000000000
      0.250000000000      0.125000000000     -0.125000000000
     -0.250000000000     -0.125000000000      0.125000000000
      0.375000000000      0.125000000000      0.250000000000
     -0.375000000000     -0.125000000000     -0.250000000000
      0.125000000000     -0.250000000000     -0.125000000000
     -0.125000000000      0.250000000000      0.125000000000
      0.125000000000      0.250000000000     -0.125000000000
     -0.125000000000     -0.250000000000      0.125000000000
      0.125000000000     -0.125000000000     -0.250000000000
     -0.125000000000      0.125000000000      0.250000000000
      0.250000000000      0.375000000000      0.125000000000
     -0.250000000000     -0.375000000000     -0.125000000000
     -0.125000000000      0.125000000000     -0.250000000000
      0.125000000000     -0.125000000000      0.250000000000
     -0.250000000000      0.125000000000     -0.125000000000
      0.250000000000     -0.125000000000      0.125000000000
      0.125000000000      0.250000000000      0.375000000000
     -0.125000000000     -0.250000000000     -0.375000000000
     -0.500000000000     -0.250000000000     -0.125000000000
      0.125000000000      0.500000000000      0.250000000000
     -0.125000000000     -0.500000000000     -0.250000000000
      0.250000000000      0.125000000000      0.500000000000
     -0.250000000000     -0.125000000000     -0.500000000000
      0.250000000000      0.125000000000     -0.250000000000
     -0.250000000000     -0.125000000000      0.250000000000
      0.500000000000      0.250000000000      0.375000000000
     -0.500000000000     -0.250000000000     -0.375000000000
      0.125000000000     -0.375000000000     -0.125000000000
     -0.125000000000      0.375000000000      0.125000000000
      0.125000000000      0.375000000000     -0.125000000000
     -0.125000000000     -0.375000000000      0.125000000000
      0.250000000000     -0.125000000000     -0.250000000000
     -0.250000000000      0.125000000000      0.250000000000
     -0.375000000000     -0.250000000000     -0.500000000000
      0.375000000000      0.250000000000      0.500000000000
      0.375000000000      0.500000000000      0.250000000000
     -0.375000000000     -0.500000000000     -0.250000000000
     -0.125000000000      0.125000000000     -0.375000000000
      0.125000000000     -0.125000000000      0.375000000000
     -0.250000000000      0.250000000000      0.125000000000
      0.250000000000     -0.250000000000     -0.125000000000
     -0.125000000000      0.125000000000      0.375000000000
      0.125000000000     -0.125000000000     -0.375000000000
     -0.250000000000      0.250000000000     -0.125000000000
      0.250000000000     -0.250000000000      0.125000000000
     -0.500000000000     -0.375000000000     -0.250000000000
      0.500000000000      0.375000000000      0.250000000000
      0.250000000000      0.375000000000      0.500000000000
     -0.250000000000     -0.375000000000     -0.500000000000
     -0.375000000000     -0.125000000000      0.125000000000
      0.375000000000      0.125000000000     -0.125000000000
      0.125000000000     -0.250000000000      0.250000000000
     -0.125000000000      0.250000000000     -0.250000000000
      0.375000000000     -0.125000000000      0.125000000000
     -0.375000000000      0.125000000000     -0.125000000000
     -0.125000000000     -0.250000000000      0.250000000000
      0.125000000000      0.250000000000     -0.250000000000
     -0.250000000000     -0.500000000000     -0.375000000000
      0.250000000000      0.500000000000      0.375000000000
     -0.500000000000     -0.125000000000     -0.250000000000
      0.500000000000      0.125000000000      0.250000000000
     -0.250000000000     -0.500000000000     -0.125000000000
      0.250000000000      0.500000000000      0.125000000000
     -0.125000000000     -0.250000000000     -0.500000000000
      0.125000000000      0.250000000000      0.500000000000
      0.375000000000     -0.250000000000     -0.125000000000
      0.125000000000     -0.375000000000      0.250000000000
     -0.125000000000      0.375000000000     -0.250000000000
      0.250000000000      0.125000000000     -0.375000000000
     -0.250000000000     -0.125000000000      0.375000000000
     -0.375000000000     -0.625000000000     -0.500000000000
      0.375000000000      0.625000000000      0.500000000000
      0.125000000000      0.500000000000     -0.125000000000
     -0.125000000000     -0.500000000000      0.125000000000
     -0.625000000000     -0.125000000000     -0.250000000000
      0.625000000000      0.125000000000      0.250000000000
      0.500000000000      0.625000000000      0.375000000000
     -0.500000000000     -0.625000000000     -0.375000000000
     -0.125000000000      0.125000000000      0.500000000000
      0.125000000000     -0.125000000000     -0.500000000000
     -0.250000000000     -0.625000000000     -0.125000000000
      0.250000000000      0.625000000000      0.125000000000
      0.375000000000      0.500000000000      0.625000000000
     -0.375000000000     -0.500000000000     -0.625000000000
      0.500000000000     -0.125000000000      0.125000000000
     -0.500000000000      0.125000000000     -0.125000000000
     -0.125000000000     -0.250000000000     -0.625000000000
      0.125000000000      0.250000000000      0.625000000000
     -0.500000000000     -0.375000000000     -0.125000000000
      0.125000000000      0.500000000000      0.375000000000
     -0.125000000000     -0.500000000000     -0.375000000000
      0.375000000000      0.125000000000      0.500000000000
     -0.375000000000     -0.125000000000     -0.500000000000
      0.375000000000      0.250000000000     -0.125000000000
     -0.375000000000     -0.250000000000      0.125000000000
      0.500000000000      0.125000000000      0.375000000000
     -0.500000000000     -0.125000000000     -0.375000000000
      0.125000000000     -0.375000000000     -0.250000000000
     -0.125000000000      0.375000000000      0.250000000000
      0.250000000000      0.375000000000     -0.125000000000
     -0.250000000000     -0.375000000000      0.125000000000
      0.125000000000     -0.250000000000     -0.375000000000
     -0.125000000000      0.250000000000      0.375000000000
      0.375000000000      0.500000000000      0.125000000000
     -0.375000000000     -0.500000000000     -0.125000000000
     -0.250000000000      0.125000000000     -0.375000000000
      0.250000000000     -0.125000000000      0.375000000000
     -0.375000000000      0.125000000000     -0.250000000000
      0.375000000000     -0.125000000000      0.250000000000
      0.125000000000      0.375000000000      0.500000000000
     -0.125000000000     -0.375000000000     -0.500000000000
      0.375000000000     -0.375000000000     -0.125000000000
      0.125000000000     -0.375000000000      0.375000000000
     -0.125000000000      0.375000000000     -0.375000000000
      0.375000000000      0.125000000000     -0.375000000000
     -0.375000000000     -0.125000000000      0.375000000000
      0.375000000000      0.250000000000      0.750000000000
     -0.375000000000     -0.250000000000     -0.750000000000
     -0.375000000000     -0.750000000000     -0.500000000000
      0.375000000000      0.750000000000      0.500000000000
      0.125000000000      0.500000000000     -0.250000000000
     -0.125000000000     -0.500000000000      0.250000000000
      0.250000000000     -0.500000000000     -0.125000000000
     -0.250000000000      0.500000000000      0.125000000000
     -0.750000000000     -0.250000000000     -0.375000000000
      0.750000000000      0.250000000000      0.375000000000
      0.500000000000      0.750000000000      0.375000000000
     -0.500000000000     -0.750000000000     -0.375000000000
     -0.500000000000     -0.375000000000     -0.750000000000
      0.500000000000      0.375000000000      0.750000000000
     -0.250000000000      0.125000000000      0.500000000000
      0.250000000000     -0.125000000000     -0.500000000000
      0.750000000000      0.375000000000      0.250000000000
     -0.750000000000     -0.375000000000     -0.250000000000
     -0.125000000000      0.250000000000     -0.500000000000
      0.125000000000     -0.250000000000      0.500000000000
     -0.375000000000     -0.750000000000     -0.250000000000
      0.375000000000      0.750000000000      0.250000000000
      0.375000000000      0.500000000000      0.750000000000
     -0.375000000000     -0.500000000000     -0.750000000000
     -0.750000000000     -0.500000000000     -0.375000000000
      0.750000000000      0.500000000000      0.375000000000
      0.500000000000     -0.250000000000      0.125000000000
     -0.500000000000      0.250000000000     -0.125000000000
      0.250000000000      0.750000000000      0.375000000000
     -0.250000000000     -0.750000000000     -0.375000000000
     -0.500000000000     -0.125000000000      0.250000000000
      0.500000000000      0.125000000000     -0.250000000000
     -0.250000000000     -0.375000000000     -0.750000000000
      0.250000000000      0.375000000000      0.750000000000
      0.750000000000      0.375000000000      0.500000000000
     -0.750000000000     -0.375000000000     -0.500000000000
      0.375000000000     -0.125000000000     -0.375000000000
     -0.375000000000      0.125000000000      0.375000000000
     -0.375000000000      0.375000000000     -0.125000000000