SYSTEM = Bi2Se3
EDIFF = 1E-8
##     
#KPAR = 4 
PREC = N
LSORBIT = .TRUE.
LORBIT = 11
#LREAL = .FALSE.
#GGA_COMPAT = .FALSE.
ISMEAR =  0
SIGMA  =  0.05
GGA    = PE
#ISYM = -1
ENCUT = 300.00 eV
#NELMDL = 2
#NSW=0
MAGMOM = 3600*0.0
ISTART = 0
ICHARG = 2

NBANDS = 56 # 18 occupied
