dis_num_iter=200
num_iter=0
!postproc_setup = .true.
iprint=2
!min of outer window
dis_win_min = -2.0
dis_win_max = 18.0
!inner -
dis_froz_min = 4.000
dis_froz_max = 4.300
#wvfn_formatted=.true.
#bands_plot = .true.
#wannier_plot = .true.
#wannier_plot_format = xcrysden
#wannier_plot_list : 1-7
hr_plot =.true.
#write_hr=.true.

#wannier_plot_supercell = 2

#restart = plot

begin projections
Bi : px; py; pz
Se : px; py; pz
end projections

bands_plot = true
bands_num_points = 40
bands_plot_format = gnuplot xmgrace

begin kpoint_path
 GAMMA   0.0000000000   0.0000000000   0.0000000000       Z       0.0000000000   0.0000000000   0.5000000000
 Z       0.0000000000   0.0000000000   0.5000000000       F       0.5000000000   0.5000000000   0.0000000000
 F       0.5000000000   0.5000000000   0.0000000000       GAMMA   0.0000000000   0.0000000000   0.0000000000
 GAMMA   0.0000000000   0.0000000000   0.0000000000       L       0.5000000000   0.0000000000   0.0000000000
end kpoint_path


# This part was generated automatically by VASP
num_bands = 56
num_wann = 30
spinors = .true.

begin unit_cell_cart
    -2.0690000    -3.5836140     0.0000000
     2.0690000    -3.5836140     0.0000000
     0.0000000     2.3890750     9.5466670
end unit_cell_cart

begin atoms_cart
Bi       0.0000000    -1.1945387     6.6540269
Bi       0.0000000    -3.5836143     2.8926401
Se       0.0000000     1.1945375     4.7733335
Se       0.0000000    -1.1945381     1.1265067
Se       0.0000000    -3.5836149     8.4201603
end atoms_cart

mp_grid =     9     9     3

begin kpoints
      0.000000000000      0.000000000000      0.000000000000
      0.111111111111      0.000000000000     -0.000000000000
      0.222222222222      0.000000000000     -0.000000000000
      0.333333333333     -0.000000000000     -0.000000000000
      0.444444444444      0.000000000000     -0.000000000000
     -0.444444444444     -0.000000000000      0.000000000000
     -0.333333333333      0.000000000000      0.000000000000
     -0.222222222222     -0.000000000000      0.000000000000
     -0.111111111111     -0.000000000000      0.000000000000
      0.000000000000      0.111111111111     -0.000000000000
      0.111111111111      0.111111111111     -0.000000000000
      0.222222222222      0.111111111111     -0.000000000000
      0.333333333333      0.111111111111     -0.000000000000
      0.444444444444      0.111111111111     -0.000000000000
     -0.444444444444      0.111111111111      0.000000000000
     -0.333333333333      0.111111111111      0.000000000000
     -0.222222222222      0.111111111111      0.000000000000
     -0.111111111111      0.111111111111      0.000000000000
      0.000000000000      0.222222222222     -0.000000000000
      0.111111111111      0.222222222222     -0.000000000000
      0.222222222222      0.222222222222     -0.000000000000
      0.333333333333      0.222222222222     -0.000000000000
      0.444444444444      0.222222222222     -0.000000000000
     -0.444444444444      0.222222222222      0.000000000000
     -0.333333333333      0.222222222222      0.000000000000
     -0.222222222222      0.222222222222      0.000000000000
     -0.111111111111      0.222222222222      0.000000000000
     -0.000000000000      0.333333333333     -0.000000000000
      0.111111111111      0.333333333333     -0.000000000000
      0.222222222222      0.333333333333     -0.000000000000
      0.333333333333      0.333333333333     -0.000000000000
      0.444444444444      0.333333333333     -0.000000000000
     -0.444444444444      0.333333333333      0.000000000000
     -0.333333333333      0.333333333333      0.000000000000
     -0.222222222222      0.333333333333     -0.000000000000
     -0.111111111111      0.333333333333     -0.000000000000
      0.000000000000      0.444444444444     -0.000000000000
      0.111111111111      0.444444444444     -0.000000000000
      0.222222222222      0.444444444444     -0.000000000000
      0.333333333333      0.444444444444     -0.000000000000
      0.444444444444      0.444444444444     -0.000000000000
     -0.444444444444      0.444444444444      0.000000000000
     -0.333333333333      0.444444444444     -0.000000000000
     -0.222222222222      0.444444444444     -0.000000000000
     -0.111111111111      0.444444444444     -0.000000000000
     -0.000000000000     -0.444444444444      0.000000000000
      0.111111111111     -0.444444444444      0.000000000000
      0.222222222222     -0.444444444444      0.000000000000
      0.333333333333     -0.444444444444      0.000000000000
      0.444444444444     -0.444444444444      0.000000000000
     -0.444444444444     -0.444444444444      0.000000000000
     -0.333333333333     -0.444444444444      0.000000000000
     -0.222222222222     -0.444444444444      0.000000000000
     -0.111111111111     -0.444444444444      0.000000000000
      0.000000000000     -0.333333333333      0.000000000000
      0.111111111111     -0.333333333333      0.000000000000
      0.222222222222     -0.333333333333      0.000000000000
      0.333333333333     -0.333333333333      0.000000000000
      0.444444444444     -0.333333333333     -0.000000000000
     -0.444444444444     -0.333333333333      0.000000000000
     -0.333333333333     -0.333333333333      0.000000000000
     -0.222222222222     -0.333333333333      0.000000000000
     -0.111111111111     -0.333333333333      0.000000000000
     -0.000000000000     -0.222222222222      0.000000000000
      0.111111111111     -0.222222222222      0.000000000000
      0.222222222222     -0.222222222222      0.000000000000
      0.333333333333     -0.222222222222     -0.000000000000
      0.444444444444     -0.222222222222     -0.000000000000
     -0.444444444444     -0.222222222222      0.000000000000
     -0.333333333333     -0.222222222222      0.000000000000
     -0.222222222222     -0.222222222222      0.000000000000
     -0.111111111111     -0.222222222222      0.000000000000
     -0.000000000000     -0.111111111111      0.000000000000
      0.111111111111     -0.111111111111      0.000000000000
      0.222222222222     -0.111111111111      0.000000000000
      0.333333333333     -0.111111111111     -0.000000000000
      0.444444444444     -0.111111111111     -0.000000000000
     -0.444444444444     -0.111111111111      0.000000000000
     -0.333333333333     -0.111111111111      0.000000000000
     -0.222222222222     -0.111111111111      0.000000000000
     -0.111111111111     -0.111111111111      0.000000000000
      0.000000000000      0.000000000000      0.333333333333
      0.111111111111      0.000000000000      0.333333333333
      0.222222222222      0.000000000000      0.333333333333
      0.333333333333     -0.000000000000      0.333333333333
      0.444444444444      0.000000000000      0.333333333333
     -0.444444444444     -0.000000000000      0.333333333333
     -0.333333333333      0.000000000000      0.333333333333
     -0.222222222222     -0.000000000000      0.333333333333
     -0.111111111111     -0.000000000000      0.333333333333
      0.000000000000      0.111111111111      0.333333333333
      0.111111111111      0.111111111111      0.333333333333
      0.222222222222      0.111111111111      0.333333333333
      0.333333333333      0.111111111111      0.333333333333
      0.444444444444      0.111111111111      0.333333333333
     -0.444444444444      0.111111111111      0.333333333333
     -0.333333333333      0.111111111111      0.333333333333
     -0.222222222222      0.111111111111      0.333333333333
     -0.111111111111      0.111111111111      0.333333333333
      0.000000000000      0.222222222222      0.333333333333
      0.111111111111      0.222222222222      0.333333333333
      0.222222222222      0.222222222222      0.333333333333
      0.333333333333      0.222222222222      0.333333333333
      0.444444444444      0.222222222222      0.333333333333
     -0.444444444444      0.222222222222      0.333333333333
     -0.333333333333      0.222222222222      0.333333333333
     -0.222222222222      0.222222222222      0.333333333333
     -0.111111111111      0.222222222222      0.333333333333
     -0.000000000000      0.333333333333      0.333333333333
      0.111111111111      0.333333333333      0.333333333333
      0.222222222222      0.333333333333      0.333333333333
      0.333333333333      0.333333333333      0.333333333333
      0.444444444444      0.333333333333      0.333333333333
     -0.444444444444      0.333333333333      0.333333333333
     -0.333333333333      0.333333333333      0.333333333333
     -0.222222222222      0.333333333333      0.333333333333
     -0.111111111111      0.333333333333      0.333333333333
      0.000000000000      0.444444444444      0.333333333333
      0.111111111111      0.444444444444      0.333333333333
      0.222222222222      0.444444444444      0.333333333333
      0.333333333333      0.444444444444      0.333333333333
      0.444444444444      0.444444444444      0.333333333333
     -0.444444444444      0.444444444444      0.333333333333
     -0.333333333333      0.444444444444      0.333333333333
     -0.222222222222      0.444444444444      0.333333333333
     -0.111111111111      0.444444444444      0.333333333333
     -0.000000000000     -0.444444444444      0.333333333333
      0.111111111111     -0.444444444444      0.333333333333
      0.222222222222     -0.444444444444      0.333333333333
      0.333333333333     -0.444444444444      0.333333333333
      0.444444444444     -0.444444444444      0.333333333333
     -0.444444444444     -0.444444444444      0.333333333333
     -0.333333333333     -0.444444444444      0.333333333333
     -0.222222222222     -0.444444444444      0.333333333333
     -0.111111111111     -0.444444444444      0.333333333333
      0.000000000000     -0.333333333333      0.333333333333
      0.111111111111     -0.333333333333      0.333333333333
      0.222222222222     -0.333333333333      0.333333333333
      0.333333333333     -0.333333333333      0.333333333333
      0.444444444444     -0.333333333333      0.333333333333
     -0.444444444444     -0.333333333333      0.333333333333
     -0.333333333333     -0.333333333333      0.333333333333
     -0.222222222222     -0.333333333333      0.333333333333
     -0.111111111111     -0.333333333333      0.333333333333
     -0.000000000000     -0.222222222222      0.333333333333
      0.111111111111     -0.222222222222      0.333333333333
      0.222222222222     -0.222222222222      0.333333333333
      0.333333333333     -0.222222222222      0.333333333333
      0.444444444444     -0.222222222222      0.333333333333
     -0.444444444444     -0.222222222222      0.333333333333
     -0.333333333333     -0.222222222222      0.333333333333
     -0.222222222222     -0.222222222222      0.333333333333
     -0.111111111111     -0.222222222222      0.333333333333
     -0.000000000000     -0.111111111111      0.333333333333
      0.111111111111     -0.111111111111      0.333333333333
      0.222222222222     -0.111111111111      0.333333333333
      0.333333333333     -0.111111111111      0.333333333333
      0.444444444444     -0.111111111111      0.333333333333
     -0.444444444444     -0.111111111111      0.333333333333
     -0.333333333333     -0.111111111111      0.333333333333
     -0.222222222222     -0.111111111111      0.333333333333
     -0.111111111111     -0.111111111111      0.333333333333
      0.000000000000      0.000000000000     -0.333333333333
      0.111111111111      0.000000000000     -0.333333333333
      0.222222222222      0.000000000000     -0.333333333333
      0.333333333333     -0.000000000000     -0.333333333333
      0.444444444444      0.000000000000     -0.333333333333
     -0.444444444444     -0.000000000000     -0.333333333333
     -0.333333333333      0.000000000000     -0.333333333333
     -0.222222222222     -0.000000000000     -0.333333333333
     -0.111111111111     -0.000000000000     -0.333333333333
      0.000000000000      0.111111111111     -0.333333333333
      0.111111111111      0.111111111111     -0.333333333333
      0.222222222222      0.111111111111     -0.333333333333
      0.333333333333      0.111111111111     -0.333333333333
      0.444444444444      0.111111111111     -0.333333333333
     -0.444444444444      0.111111111111     -0.333333333333
     -0.333333333333      0.111111111111     -0.333333333333
     -0.222222222222      0.111111111111     -0.333333333333
     -0.111111111111      0.111111111111     -0.333333333333
      0.000000000000      0.222222222222     -0.333333333333
      0.111111111111      0.222222222222     -0.333333333333
      0.222222222222      0.222222222222     -0.333333333333
      0.333333333333      0.222222222222     -0.333333333333
      0.444444444444      0.222222222222     -0.333333333333
     -0.444444444444      0.222222222222     -0.333333333333
     -0.333333333333      0.222222222222     -0.333333333333
     -0.222222222222      0.222222222222     -0.333333333333
     -0.111111111111      0.222222222222     -0.333333333333
     -0.000000000000      0.333333333333     -0.333333333333
      0.111111111111      0.333333333333     -0.333333333333
      0.222222222222      0.333333333333     -0.333333333333
      0.333333333333      0.333333333333     -0.333333333333
      0.444444444444      0.333333333333     -0.333333333333
     -0.444444444444      0.333333333333     -0.333333333333
     -0.333333333333      0.333333333333     -0.333333333333
     -0.222222222222      0.333333333333     -0.333333333333
     -0.111111111111      0.333333333333     -0.333333333333
      0.000000000000      0.444444444444     -0.333333333333
      0.111111111111      0.444444444444     -0.333333333333
      0.222222222222      0.444444444444     -0.333333333333
      0.333333333333      0.444444444444     -0.333333333333
      0.444444444444      0.444444444444     -0.333333333333
     -0.444444444444      0.444444444444     -0.333333333333
     -0.333333333333      0.444444444444     -0.333333333333
     -0.222222222222      0.444444444444     -0.333333333333
     -0.111111111111      0.444444444444     -0.333333333333
     -0.000000000000     -0.444444444444     -0.333333333333
      0.111111111111     -0.444444444444     -0.333333333333
      0.222222222222     -0.444444444444     -0.333333333333
      0.333333333333     -0.444444444444     -0.333333333333
      0.444444444444     -0.444444444444     -0.333333333333
     -0.444444444444     -0.444444444444     -0.333333333333
     -0.333333333333     -0.444444444444     -0.333333333333
     -0.222222222222     -0.444444444444     -0.333333333333
     -0.111111111111     -0.444444444444     -0.333333333333
      0.000000000000     -0.333333333333     -0.333333333333
      0.111111111111     -0.333333333333     -0.333333333333
      0.222222222222     -0.333333333333     -0.333333333333
      0.333333333333     -0.333333333333     -0.333333333333
      0.444444444444     -0.333333333333     -0.333333333333
     -0.444444444444     -0.333333333333     -0.333333333333
     -0.333333333333     -0.333333333333     -0.333333333333
     -0.222222222222     -0.333333333333     -0.333333333333
     -0.111111111111     -0.333333333333     -0.333333333333
     -0.000000000000     -0.222222222222     -0.333333333333
      0.111111111111     -0.222222222222     -0.333333333333
      0.222222222222     -0.222222222222     -0.333333333333
      0.333333333333     -0.222222222222     -0.333333333333
      0.444444444444     -0.222222222222     -0.333333333333
     -0.444444444444     -0.222222222222     -0.333333333333
     -0.333333333333     -0.222222222222     -0.333333333333
     -0.222222222222     -0.222222222222     -0.333333333333
     -0.111111111111     -0.222222222222     -0.333333333333
     -0.000000000000     -0.111111111111     -0.333333333333
      0.111111111111     -0.111111111111     -0.333333333333
      0.222222222222     -0.111111111111     -0.333333333333
      0.333333333333     -0.111111111111     -0.333333333333
      0.444444444444     -0.111111111111     -0.333333333333
     -0.444444444444     -0.111111111111     -0.333333333333
     -0.333333333333     -0.111111111111     -0.333333333333
     -0.222222222222     -0.111111111111     -0.333333333333
     -0.111111111111     -0.111111111111     -0.333333333333
end kpoints
