Cu1
1.0
  -1.8074550000000003   -1.8074550000000003    0.0000000000000000
  -1.8074550000000003   -0.0000000000000001   -1.8074550000000000
  -0.0000000000000002   -1.8074550000000003   -1.8074550000000000
Cu
1
direct
   0.0000000000000000    0.0000000000000000    0.0000000000000000 Cu0+
