Cu  spacegroup
1.0
   0.0000000   1.8075000   1.8075000
   1.8075000   0.0000000   1.8075000
   1.8075000   1.8075000   0.0000000
Cu
1
Direct
0 0 0

