k-points for bandstructure G-F-Q-Z-G
 30
line
reciprocal
  0.00000  0.00000  0.00000    G
  0.00000  0.00000  0.50000    Z

  0.00000  0.00000  0.50000    Z
  0.50000  0.50000  0.00000    F

  0.50000  0.50000  0.00000    F
  0.00000  0.00000  0.00000    G

  0.00000  0.00000  0.00000    G
  0.50000  0.00000  0.00000    L

